(set-option :produce-models true); benchmark generated from python API
(set-info :status unknown)
(declare-fun l_1_0_9 () Real)
(declare-fun l_1_0_8 () Real)
(declare-fun l_1_0_7 () Real)
(declare-fun l_1_0_6 () Real)
(declare-fun l_1_0_5 () Real)
(declare-fun l_1_0_4 () Real)
(declare-fun l_1_0_3 () Real)
(declare-fun l_1_0_2 () Real)
(declare-fun l_1_0_1 () Real)
(declare-fun _a_0_ () Real)
(declare-fun l_1_0_18 () Real)
(declare-fun l_1_0_17 () Real)
(declare-fun l_1_0_16 () Real)
(declare-fun l_1_0_15 () Real)
(declare-fun _a_1_ () Real)
(declare-fun l_1_0_11 () Real)
(declare-fun l_1_0_10 () Real)
(declare-fun _a_2_ () Real)
(declare-fun l_1_0_13 () Real)
(declare-fun l_1_0_12 () Real)
(declare-fun _a_3_ () Real)
(declare-fun _a_4_ () Real)
(declare-fun l_1_0_14 () Real)
(declare-fun _a_5_ () Real)
(declare-fun _a_6_ () Real)
(declare-fun _a_7_ () Real)
(declare-fun _a_8_ () Real)
(declare-fun _a_9_ () Real)
(declare-fun l_1_1_9 () Real)
(declare-fun l_1_1_8 () Real)
(declare-fun l_1_1_6 () Real)
(declare-fun l_1_1_4 () Real)
(declare-fun l_1_1_2 () Real)
(declare-fun l_1_1_15 () Real)
(declare-fun l_1_1_14 () Real)
(declare-fun l_1_1_13 () Real)
(declare-fun l_1_1_11 () Real)
(declare-fun l_1_1_1 () Real)
(declare-fun l_1_1_7 () Real)
(declare-fun l_1_1_5 () Real)
(declare-fun l_1_1_3 () Real)
(declare-fun l_1_1_12 () Real)
(declare-fun l_1_1_10 () Real)
(declare-fun l_1_1_23 () Real)
(declare-fun l_1_1_20 () Real)
(declare-fun l_1_1_22 () Real)
(declare-fun l_1_1_19 () Real)
(declare-fun l_1_1_21 () Real)
(declare-fun l_1_1_18 () Real)
(declare-fun l_1_1_17 () Real)
(declare-fun l_1_1_16 () Real)
(declare-fun l_1_1_24 () Real)
(declare-fun l_1_2_9 () Real)
(declare-fun l_1_2_8 () Real)
(declare-fun l_1_2_6 () Real)
(declare-fun l_1_2_5 () Real)
(declare-fun l_1_2_3 () Real)
(declare-fun l_1_2_2 () Real)
(declare-fun l_1_2_17 () Real)
(declare-fun l_1_2_16 () Real)
(declare-fun l_1_2_14 () Real)
(declare-fun l_1_2_12 () Real)
(declare-fun l_1_2_10 () Real)
(declare-fun l_1_2_7 () Real)
(declare-fun l_1_2_4 () Real)
(declare-fun l_1_2_13 () Real)
(declare-fun l_1_2_11 () Real)
(declare-fun l_1_2_1 () Real)
(declare-fun l_1_2_15 () Real)
(declare-fun l_1_2_21 () Real)
(declare-fun l_1_2_18 () Real)
(declare-fun l_1_2_28 () Real)
(declare-fun l_1_2_24 () Real)
(declare-fun l_1_2_27 () Real)
(declare-fun l_1_2_23 () Real)
(declare-fun l_1_2_26 () Real)
(declare-fun l_1_2_22 () Real)
(declare-fun l_1_2_25 () Real)
(declare-fun l_1_2_20 () Real)
(declare-fun l_1_2_19 () Real)
(declare-fun l_1_2_29 () Real)
(assert
 (let ((?x85 (* l_1_0_9 l_1_0_9)))
 (let ((?x4701 (* (/ 1.0 4.0) l_1_0_7)))
 (let ((?x95 (* (/ 1.0 4.0) l_1_0_5)))
 (let ((?x97 (- (- (- _a_0_ (* (/ 1.0 16.0) l_1_0_1)) (* (/ 1.0 4.0) l_1_0_2)) l_1_0_3)))
 (let ((?x4699 (- (- (- (- (- (- ?x97 l_1_0_4) ?x95) l_1_0_6) ?x4701) l_1_0_8) ?x85)))
 (= ?x4699 0.0)))))))
(assert
 (let ((?x3359 (* l_1_0_18 l_1_0_18)))
 (let ((?x77 (* l_1_0_17 l_1_0_17)))
 (let ((?x3356 (* l_1_0_16 l_1_0_16)))
 (let ((?x3357 (- (- (+ _a_1_ (* (/ 1.0 2.0) l_1_0_1)) (* l_1_0_15 l_1_0_15)) ?x3356)))
 (= (+ (+ (+ (- (- ?x3357 ?x77) ?x3359) l_1_0_2) l_1_0_5) l_1_0_7) 0.0))))))
(assert
 (let ((?x3593 (- (- _a_2_ (* (* 2.0 l_1_0_10) l_1_0_15)) (* (* 2.0 l_1_0_11) l_1_0_16))))
 (= ?x3593 0.0)))
(assert
 (let ((?x3685 (- (- _a_3_ (* (* 2.0 l_1_0_10) l_1_0_12)) (* (* 2.0 l_1_0_11) l_1_0_13))))
 (= ?x3685 0.0)))
(assert
 (= (- _a_4_ (* (* 2.0 l_1_0_10) l_1_0_9)) 0.0))
(assert
 (let ((?x4535 (- (- _a_5_ (* (* 2.0 l_1_0_12) l_1_0_15)) (* (* 2.0 l_1_0_13) l_1_0_16))))
 (= (- ?x4535 (* (* 2.0 l_1_0_14) l_1_0_17)) 0.0)))
(assert
 (= (- _a_6_ (* (* 2.0 l_1_0_12) l_1_0_9)) 0.0))
(assert
 (let ((?x591 (* l_1_0_14 l_1_0_14)))
 (let ((?x1870 (* l_1_0_13 l_1_0_13)))
 (let ((?x4462 (- (- (+ _a_7_ (* (/ 1.0 2.0) l_1_0_1)) (* l_1_0_12 l_1_0_12)) ?x1870)))
 (= (+ (+ (+ (- ?x4462 ?x591) l_1_0_2) l_1_0_5) l_1_0_7) 0.0)))))
(assert
 (= (- _a_8_ (* (* 2.0 l_1_0_15) l_1_0_9)) 0.0))
(assert
 (let ((?x4420 (* l_1_0_11 l_1_0_11)))
 (let ((?x4421 (- (- (+ _a_9_ (* (/ 1.0 2.0) l_1_0_1)) (* l_1_0_10 l_1_0_10)) ?x4420)))
 (= (+ (+ (+ ?x4421 l_1_0_2) l_1_0_5) l_1_0_7) 0.0))))
(assert
 (= (- l_1_0_1) 0.0))
(assert
 (= (* (- 2.0) l_1_0_1) 0.0))
(assert
 (= (* (- 2.0) l_1_0_1) 0.0))
(assert
 (= (- l_1_0_1) 0.0))
(assert
 (= (* (- 2.0) l_1_0_1) 0.0))
(assert
 (= (- l_1_0_1) 0.0))
(assert
 (>= l_1_0_1 0.0))
(assert
 (>= l_1_0_2 0.0))
(assert
 (>= l_1_0_3 0.0))
(assert
 (>= l_1_0_4 0.0))
(assert
 (>= l_1_0_5 0.0))
(assert
 (>= l_1_0_6 0.0))
(assert
 (>= l_1_0_7 0.0))
(assert
 (>= l_1_0_8 0.0))
(assert
 (>= l_1_0_9 0.0))
(assert
 (>= l_1_0_11 0.0))
(assert
 (>= l_1_0_14 0.0))
(assert
 (>= l_1_0_18 0.0))
(assert
 (let ((?x1656 (* 81.0 l_1_1_8)))
 (let ((?x1596 (* 9.0 l_1_1_4)))
 (let ((?x1706 (* 9.0 l_1_1_2)))
 (let ((?x1755 (* l_1_1_15 l_1_1_15)))
 (let ((?x1763 (* 9.0 l_1_1_13)))
 (let ((?x1775 (* _a_0_ l_1_1_5)))
 (let ((?x1773 (* _a_0_ l_1_1_3)))
 (let ((?x1776 (- (- (- (* (* 9.0 _a_0_) l_1_1_10) (* _a_0_ l_1_1_12)) ?x1773) ?x1775)))
 (let ((?x4346 (- (+ ?x1776 (* (* 9.0 _a_0_) l_1_1_7)) (* (* l_1_1_1 _a_0_) _a_0_))))
 (let ((?x1620 (+ (+ (- (- (+ (- ?x4346 l_1_1_11) ?x1763) l_1_1_14) ?x1755) ?x1706) ?x1596)))
 (= (- (- (- ?x1620 l_1_1_6) ?x1656) l_1_1_9) 0.0))))))))))))
(assert
 (let ((?x4141 (+ (* (* 2.0 _a_0_) _a_3_) (* (* 2.0 _a_4_) _a_6_))))
 (let ((?x3011 (* _a_3_ l_1_1_5)))
 (let ((?x3009 (* _a_3_ l_1_1_3)))
 (let ((?x3012 (- (- (- (* (* 9.0 _a_3_) l_1_1_10) (* _a_3_ l_1_1_12)) ?x3009) ?x3011)))
 (let ((?x1384 (- (- (+ ?x3012 (* (* 9.0 _a_3_) l_1_1_7)) (* l_1_1_1 ?x4141)) (* (* 2.0 l_1_1_18) l_1_1_21))))
 (let ((?x4093 (- (- ?x1384 (* (* 2.0 l_1_1_19) l_1_1_22)) (* (* 2.0 l_1_1_20) l_1_1_23))))
 (= (- ?x4093 1.0) 0.0))))))))
(assert
 (let ((?x3929 (+ (* (* 2.0 _a_0_) _a_5_) (* (* 2.0 _a_6_) _a_8_))))
 (let ((?x272 (* _a_5_ l_1_1_5)))
 (let ((?x3531 (* _a_5_ l_1_1_3)))
 (let ((?x3923 (- (- (- (* (* 9.0 _a_5_) l_1_1_10) (* _a_5_ l_1_1_12)) ?x3531) ?x272)))
 (let ((?x3852 (- (- (+ ?x3923 (* (* 9.0 _a_5_) l_1_1_7)) (* l_1_1_1 ?x3929)) (* (* 2.0 l_1_1_16) l_1_1_18))))
 (= (- (- ?x3852 (* (* 2.0 l_1_1_17) l_1_1_19)) 1.0) 0.0)))))))
(assert
 (let ((?x3576 (+ (* (* 2.0 _a_0_) _a_2_) (* (* 2.0 _a_4_) _a_8_))))
 (let ((?x3591 (* _a_2_ l_1_1_5)))
 (let ((?x3546 (* _a_2_ l_1_1_3)))
 (let ((?x3592 (- (- (- (* (* 9.0 _a_2_) l_1_1_10) (* _a_2_ l_1_1_12)) ?x3546) ?x3591)))
 (let ((?x3581 (- (- (+ ?x3592 (* (* 9.0 _a_2_) l_1_1_7)) (* l_1_1_1 ?x3576)) (* (* 2.0 l_1_1_16) l_1_1_21))))
 (= (- (- ?x3581 (* (* 2.0 l_1_1_17) l_1_1_22)) 1.0) 0.0)))))))
(assert
 (let ((?x3372 (* _a_6_ l_1_1_5)))
 (let ((?x3370 (* _a_6_ l_1_1_3)))
 (let ((?x3368 (* _a_6_ l_1_1_12)))
 (let ((?x3367 (+ (* (* (* (- 2.0) _a_0_) _a_6_) l_1_1_1) (* (* 9.0 _a_6_) l_1_1_10))))
 (let ((?x3375 (+ (- (- (- ?x3367 ?x3368) ?x3370) ?x3372) (* (* 9.0 _a_6_) l_1_1_7))))
 (= (+ (- ?x3375 (* (* 2.0 l_1_1_15) l_1_1_18)) 2.0) 0.0)))))))
(assert
 (let ((?x3311 (* _a_4_ l_1_1_5)))
 (let ((?x3309 (* _a_4_ l_1_1_3)))
 (let ((?x3308 (* _a_4_ l_1_1_12)))
 (let ((?x3307 (+ (* (* (* (- 2.0) _a_0_) _a_4_) l_1_1_1) (* (* 9.0 _a_4_) l_1_1_10))))
 (let ((?x3270 (+ (- (- (- ?x3307 ?x3308) ?x3309) ?x3311) (* (* 9.0 _a_4_) l_1_1_7))))
 (= (+ (- ?x3270 (* (* 2.0 l_1_1_15) l_1_1_21)) 2.0) 0.0)))))))
(assert
 (let ((?x3017 (* _a_8_ l_1_1_5)))
 (let ((?x3015 (* _a_8_ l_1_1_3)))
 (let ((?x3158 (* _a_8_ l_1_1_12)))
 (let ((?x3157 (+ (* (* (* (- 2.0) _a_0_) _a_8_) l_1_1_1) (* (* 9.0 _a_8_) l_1_1_10))))
 (let ((?x3020 (+ (- (- (- ?x3157 ?x3158) ?x3015) ?x3017) (* (* 9.0 _a_8_) l_1_1_7))))
 (= (+ (- ?x3020 (* (* 2.0 l_1_1_15) l_1_1_16)) 2.0) 0.0)))))))
(assert
 (let ((?x2746 (* 18.0 l_1_1_8)))
 (let ((?x2916 (* l_1_1_20 l_1_1_20)))
 (let ((?x2913 (* l_1_1_19 l_1_1_19)))
 (let ((?x2911 (* l_1_1_18 l_1_1_18)))
 (let ((?x2899 (* _a_7_ l_1_1_5)))
 (let ((?x2905 (- (- (- (* (- _a_7_) l_1_1_12) (* _a_7_ l_1_1_3)) ?x2899) (* l_1_1_1 (+ (* (* 2.0 _a_0_) _a_7_) (* _a_6_ _a_6_))))))
 (let ((?x2912 (- (- (- ?x2905 (* l_1_1_10 (- _a_0_ (* 9.0 _a_7_)))) l_1_1_13) ?x2911)))
 (let ((?x2920 (- (- (- (- (- ?x2912 ?x2913) l_1_1_2) ?x2916) l_1_1_4) (* l_1_1_7 (- _a_0_ (* 9.0 _a_7_))))))
 (= (+ (+ ?x2920 ?x2746) 1.0) 0.0))))))))))
(assert
 (let ((?x2746 (* 18.0 l_1_1_8)))
 (let ((?x45 (* l_1_1_24 l_1_1_24)))
 (let ((?x47 (* l_1_1_23 l_1_1_23)))
 (let ((?x50 (* l_1_1_22 l_1_1_22)))
 (let ((?x54 (* l_1_1_21 l_1_1_21)))
 (let ((?x2423 (* _a_9_ l_1_1_5)))
 (let ((?x2411 (- (- (- (* (- _a_9_) l_1_1_12) (* _a_9_ l_1_1_3)) ?x2423) (* l_1_1_1 (+ (* (* 2.0 _a_0_) _a_9_) (* _a_4_ _a_4_))))))
 (let ((?x2408 (- (- (- ?x2411 (* l_1_1_10 (- _a_0_ (* 9.0 _a_9_)))) l_1_1_13) l_1_1_2)))
 (let ((?x40 (- (- (- (- (- (- ?x2408 ?x54) ?x50) ?x47) ?x45) l_1_1_4) (* l_1_1_7 (- _a_0_ (* 9.0 _a_9_))))))
 (= (+ (+ ?x40 ?x2746) 1.0) 0.0)))))))))))
(assert
 (let ((?x2746 (* 18.0 l_1_1_8)))
 (let ((?x1425 (* l_1_1_17 l_1_1_17)))
 (let ((?x2162 (* l_1_1_16 l_1_1_16)))
 (let ((?x2210 (* _a_1_ l_1_1_5)))
 (let ((?x578 (- (- (- (* (- _a_1_) l_1_1_12) (* _a_1_ l_1_1_3)) ?x2210) (* l_1_1_1 (+ (* (* 2.0 _a_0_) _a_1_) (* _a_8_ _a_8_))))))
 (let ((?x1424 (- (- (- ?x578 (* l_1_1_10 (- _a_0_ (* 9.0 _a_1_)))) l_1_1_13) ?x2162)))
 (let ((?x1430 (- (- (- (- ?x1424 ?x1425) l_1_1_2) l_1_1_4) (* l_1_1_7 (- _a_0_ (* 9.0 _a_1_))))))
 (= (+ (+ ?x1430 ?x2746) 1.0) 0.0)))))))))
(assert
 (let ((?x1672 (- (- (* (- _a_1_) l_1_1_10) (* _a_1_ l_1_1_7)) (* (* l_1_1_1 _a_1_) _a_1_))))
 (= (- ?x1672 l_1_1_8) 0.0)))
(assert
 (let ((?x2412 (* _a_2_ l_1_1_7)))
 (let ((?x3548 (* _a_2_ l_1_1_10)))
 (= (- (- (* (* (* (- 2.0) _a_1_) _a_2_) l_1_1_1) ?x3548) ?x2412) 0.0))))
(assert
 (let ((?x1422 (+ (* (* 2.0 _a_1_) _a_3_) (* (* 2.0 _a_2_) _a_5_))))
 (let ((?x1426 (- (- (* (- _a_3_) l_1_1_10) (* _a_3_ l_1_1_7)) (* l_1_1_1 ?x1422))))
 (= ?x1426 0.0))))
(assert
 (let ((?x1209 (+ (* (* 2.0 _a_1_) _a_4_) (* (* 2.0 _a_2_) _a_8_))))
 (let ((?x3217 (* _a_4_ l_1_1_7)))
 (let ((?x1206 (- (* (- _a_4_) l_1_1_10) ?x3217)))
 (= (- ?x1206 (* l_1_1_1 ?x1209)) 0.0)))))
(assert
 (let ((?x3826 (* _a_5_ l_1_1_7)))
 (let ((?x3866 (* _a_5_ l_1_1_10)))
 (= (- (- (* (* (* (- 2.0) _a_1_) _a_5_) l_1_1_1) ?x3866) ?x3826) 0.0))))
(assert
 (let ((?x1013 (+ (* (* 2.0 _a_1_) _a_6_) (* (* 2.0 _a_5_) _a_8_))))
 (let ((?x3392 (* _a_6_ l_1_1_7)))
 (let ((?x61 (- (* (- _a_6_) l_1_1_10) ?x3392)))
 (= (- ?x61 (* l_1_1_1 ?x1013)) 0.0)))))
(assert
 (let ((?x901 (* 2.0 l_1_1_8)))
 (let ((?x895 (* _a_5_ _a_5_)))
 (let ((?x837 (+ (* (* 2.0 _a_1_) _a_7_) ?x895)))
 (let ((?x801 (- l_1_1_1)))
 (let ((?x900 (- (- (* ?x801 ?x837) (* l_1_1_10 (+ _a_1_ _a_7_))) (* l_1_1_7 (+ _a_1_ _a_7_)))))
 (= (- ?x900 ?x901) 0.0)))))))
(assert
 (let ((?x3033 (* _a_8_ l_1_1_7)))
 (let ((?x3024 (* _a_8_ l_1_1_10)))
 (= (- (- (* (* (* (- 2.0) _a_1_) _a_8_) l_1_1_1) ?x3024) ?x3033) 0.0))))
(assert
 (let ((?x901 (* 2.0 l_1_1_8)))
 (let ((?x689 (* _a_2_ _a_2_)))
 (let ((?x690 (+ (* (* 2.0 _a_1_) _a_9_) ?x689)))
 (let ((?x801 (- l_1_1_1)))
 (let ((?x700 (- (- (* ?x801 ?x690) (* l_1_1_10 (+ _a_1_ _a_9_))) (* l_1_1_7 (+ _a_1_ _a_9_)))))
 (= (- ?x700 ?x901) 0.0)))))))
(assert
 (let ((?x616 (+ (* (* 2.0 _a_2_) _a_3_) (* (* 2.0 _a_5_) _a_9_))))
 (let ((?x559 (- (- (* (- _a_5_) l_1_1_10) (* _a_5_ l_1_1_7)) (* l_1_1_1 ?x616))))
 (= ?x559 0.0))))
(assert
 (let ((?x514 (+ (* (* 2.0 _a_2_) _a_4_) (* (* 2.0 _a_8_) _a_9_))))
 (let ((?x3033 (* _a_8_ l_1_1_7)))
 (let ((?x511 (- (* (- _a_8_) l_1_1_10) ?x3033)))
 (= (- ?x511 (* l_1_1_1 ?x514)) 0.0)))))
(assert
 (let ((?x415 (+ (+ (* (* 2.0 _a_2_) _a_6_) (* (* 2.0 _a_3_) _a_8_)) (* (* 2.0 _a_4_) _a_5_))))
 (let ((?x801 (- l_1_1_1)))
 (= (* ?x801 ?x415) 0.0))))
(assert
 (let ((?x448 (+ (* (* 2.0 _a_2_) _a_7_) (* (* 2.0 _a_3_) _a_5_))))
 (let ((?x450 (- (- (* (- _a_2_) l_1_1_10) (* _a_2_ l_1_1_7)) (* l_1_1_1 ?x448))))
 (= ?x450 0.0))))
(assert
 (let ((?x2412 (* _a_2_ l_1_1_7)))
 (let ((?x3548 (* _a_2_ l_1_1_10)))
 (= (- (- (* (* (* (- 2.0) _a_2_) _a_9_) l_1_1_1) ?x3548) ?x2412) 0.0))))
(assert
 (let ((?x901 (* 2.0 l_1_1_8)))
 (let ((?x312 (* _a_3_ _a_3_)))
 (let ((?x315 (+ ?x312 (* (* 2.0 _a_7_) _a_9_))))
 (let ((?x801 (- l_1_1_1)))
 (let ((?x321 (- (- (* ?x801 ?x315) (* l_1_1_10 (+ _a_7_ _a_9_))) (* l_1_1_7 (+ _a_7_ _a_9_)))))
 (= (- ?x321 ?x901) 0.0)))))))
(assert
 (let ((?x148 (+ (* (* 2.0 _a_3_) _a_4_) (* (* 2.0 _a_6_) _a_9_))))
 (let ((?x3392 (* _a_6_ l_1_1_7)))
 (let ((?x61 (- (* (- _a_6_) l_1_1_10) ?x3392)))
 (= (- ?x61 (* l_1_1_1 ?x148)) 0.0)))))
(assert
 (let ((?x3086 (+ (* (* 2.0 _a_3_) _a_6_) (* (* 2.0 _a_4_) _a_7_))))
 (let ((?x3217 (* _a_4_ l_1_1_7)))
 (let ((?x1206 (- (* (- _a_4_) l_1_1_10) ?x3217)))
 (= (- ?x1206 (* l_1_1_1 ?x3086)) 0.0)))))
(assert
 (let ((?x1133 (* _a_3_ l_1_1_7)))
 (let ((?x4096 (* _a_3_ l_1_1_10)))
 (= (- (- (* (* (* (- 2.0) _a_3_) _a_7_) l_1_1_1) ?x4096) ?x1133) 0.0))))
(assert
 (let ((?x1133 (* _a_3_ l_1_1_7)))
 (let ((?x4096 (* _a_3_ l_1_1_10)))
 (= (- (- (* (* (* (- 2.0) _a_3_) _a_9_) l_1_1_1) ?x4096) ?x1133) 0.0))))
(assert
 (let ((?x3217 (* _a_4_ l_1_1_7)))
 (let ((?x3275 (* _a_4_ l_1_1_10)))
 (= (- (- (* (* (* (- 2.0) _a_4_) _a_9_) l_1_1_1) ?x3275) ?x3217) 0.0))))
(assert
 (let ((?x4340 (+ (* (* 2.0 _a_5_) _a_6_) (* (* 2.0 _a_7_) _a_8_))))
 (let ((?x3033 (* _a_8_ l_1_1_7)))
 (let ((?x511 (- (* (- _a_8_) l_1_1_10) ?x3033)))
 (= (- ?x511 (* l_1_1_1 ?x4340)) 0.0)))))
(assert
 (let ((?x3826 (* _a_5_ l_1_1_7)))
 (let ((?x3866 (* _a_5_ l_1_1_10)))
 (= (- (- (* (* (* (- 2.0) _a_5_) _a_7_) l_1_1_1) ?x3866) ?x3826) 0.0))))
(assert
 (let ((?x3392 (* _a_6_ l_1_1_7)))
 (let ((?x3381 (* _a_6_ l_1_1_10)))
 (= (- (- (* (* (* (- 2.0) _a_6_) _a_7_) l_1_1_1) ?x3381) ?x3392) 0.0))))
(assert
 (let ((?x3248 (- (- (* (- _a_7_) l_1_1_10) (* _a_7_ l_1_1_7)) (* (* l_1_1_1 _a_7_) _a_7_))))
 (= (- ?x3248 l_1_1_8) 0.0)))
(assert
 (let ((?x3049 (- (- (* (- _a_9_) l_1_1_10) (* _a_9_ l_1_1_7)) (* (* l_1_1_1 _a_9_) _a_9_))))
 (= (- ?x3049 l_1_1_8) 0.0)))
(assert
 (>= l_1_1_1 0.0))
(assert
 (>= l_1_1_2 0.0))
(assert
 (>= l_1_1_3 0.0))
(assert
 (>= l_1_1_4 0.0))
(assert
 (>= l_1_1_5 0.0))
(assert
 (>= l_1_1_6 0.0))
(assert
 (>= l_1_1_7 0.0))
(assert
 (>= l_1_1_8 0.0))
(assert
 (>= l_1_1_9 0.0))
(assert
 (>= l_1_1_10 0.0))
(assert
 (>= l_1_1_11 0.0))
(assert
 (>= l_1_1_12 0.0))
(assert
 (>= l_1_1_13 0.0))
(assert
 (>= l_1_1_14 0.0))
(assert
 (>= l_1_1_15 0.0))
(assert
 (>= l_1_1_17 0.0))
(assert
 (>= l_1_1_20 0.0))
(assert
 (>= l_1_1_24 0.0))
(assert
 (let ((?x4296 (* 9.0 l_1_2_8)))
 (let ((?x4295 (* 9.0 l_1_2_6)))
 (let ((?x4294 (* 81.0 l_1_2_5)))
 (let ((?x1680 (* l_1_2_17 l_1_2_17)))
 (let ((?x1716 (* l_1_2_16 l_1_2_16)))
 (let ((?x1653 (* 9.0 l_1_2_12)))
 (let ((?x3257 (* _a_0_ l_1_2_7)))
 (let ((?x1536 (* _a_0_ l_1_2_4)))
 (let ((?x2443 (- (- (* (* (- 9.0) _a_0_) l_1_2_1) (* _a_0_ l_1_2_11)) (* (* 9.0 _a_0_) l_1_2_13))))
 (let ((?x1710 (- (- (- (+ (- (- ?x2443 ?x1536) ?x3257) _a_0_) l_1_2_10) ?x1653) l_1_2_14)))
 (let ((?x4291 (- (- (- (- (- (- ?x1710 ?x1716) ?x1680) l_1_2_2) l_1_2_3) ?x4294) ?x4295)))
 (= (- (- ?x4291 ?x4296) (* (* l_1_2_9 _a_0_) _a_0_)) 0.0)))))))))))))
(assert
 (= (- _a_1_ (* l_1_2_15 l_1_2_15)) 0.0))
(assert
 (let ((?x2667 (- (- _a_2_ (* (/ 1.0 10.0) _a_5_)) (* (* 2.0 l_1_2_15) l_1_2_21))))
 (= ?x2667 0.0)))
(assert
 (= (- (* (- (/ 1.0 10.0)) _a_2_) (* (* 2.0 l_1_2_15) l_1_2_18)) 0.0))
(assert
 (let ((?x4141 (+ (* (* 2.0 _a_0_) _a_3_) (* (* 2.0 _a_4_) _a_6_))))
 (let ((?x3403 (* (/ 1.0 5.0) _a_7_)))
 (let ((?x3399 (* _a_3_ l_1_2_7)))
 (let ((?x193 (* _a_3_ l_1_2_4)))
 (let ((?x189 (- (- (* (* (- 9.0) _a_3_) l_1_2_1) (* _a_3_ l_1_2_11)) (* (* 9.0 _a_3_) l_1_2_13))))
 (let ((?x3407 (- (- (+ (- (- ?x189 ?x193) ?x3399) _a_3_) ?x3403) (* (* 2.0 l_1_2_21) l_1_2_25))))
 (let ((?x3429 (- (- ?x3407 (* (* 2.0 l_1_2_22) l_1_2_26)) (* (* 2.0 l_1_2_23) l_1_2_27))))
 (= (- (- ?x3429 (* (* 2.0 l_1_2_24) l_1_2_28)) (* l_1_2_9 ?x4141)) 0.0)))))))))
(assert
 (let ((?x3929 (+ (* (* 2.0 _a_0_) _a_5_) (* (* 2.0 _a_6_) _a_8_))))
 (let ((?x1546 (* _a_5_ l_1_2_7)))
 (let ((?x1555 (* _a_5_ l_1_2_4)))
 (let ((?x1543 (* _a_5_ l_1_2_11)))
 (let ((?x1551 (- (- (- (* (- (/ 1.0 10.0)) _a_3_) (* (* 9.0 _a_5_) l_1_2_1)) ?x1543) (* (* 9.0 _a_5_) l_1_2_13))))
 (let ((?x2054 (- (- (- (- ?x1551 ?x1555) ?x1546) (* (* 2.0 l_1_2_18) l_1_2_25)) (* (* 2.0 l_1_2_19) l_1_2_26))))
 (= (- (- ?x2054 (* (* 2.0 l_1_2_20) l_1_2_27)) (* l_1_2_9 ?x3929)) 0.0))))))))
(assert
 (let ((?x672 (* 18.0 l_1_2_5)))
 (let ((?x670 (* l_1_2_24 l_1_2_24)))
 (let ((?x2368 (* l_1_2_23 l_1_2_23)))
 (let ((?x2363 (* l_1_2_22 l_1_2_22)))
 (let ((?x2361 (* l_1_2_21 l_1_2_21)))
 (let ((?x4251 (* _a_9_ l_1_2_7)))
 (let ((?x4246 (* _a_9_ l_1_2_4)))
 (let ((?x4249 (- (- (+ (* (- (/ 1.0 10.0)) _a_3_) (* (/ 1.0 100.0) _a_7_)) (* _a_9_ l_1_2_11)) ?x4246)))
 (let ((?x1412 (- (+ (- ?x4249 ?x4251) _a_9_) (* l_1_2_1 (+ (- _a_0_) (* 9.0 _a_9_))))))
 (let ((?x2360 (- (+ ?x1412 l_1_2_12) (* l_1_2_13 (+ (- _a_0_) (* 9.0 _a_9_))))))
 (let ((?x3846 (+ (+ (+ (- (- (- (- ?x2360 ?x2361) ?x2363) ?x2368) ?x670) ?x672) l_1_2_6) l_1_2_8)))
 (let ((?x3586 (- ?x3846 (* l_1_2_9 (+ (* (* 2.0 _a_0_) _a_9_) (* _a_4_ _a_4_))))))
 (= ?x3586 0.0))))))))))))))
(assert
 (let ((?x3576 (+ (* (* 2.0 _a_0_) _a_2_) (* (* 2.0 _a_4_) _a_8_))))
 (let ((?x3340 (* (/ 1.0 5.0) _a_9_)))
 (let ((?x2284 (* (/ 1.0 100.0) _a_3_)))
 (let ((?x1134 (* _a_2_ l_1_2_7)))
 (let ((?x2285 (* _a_2_ l_1_2_4)))
 (let ((?x2281 (- (- (* (* (- 9.0) _a_2_) l_1_2_1) (* _a_2_ l_1_2_11)) (* (* 9.0 _a_2_) l_1_2_13))))
 (let ((?x3796 (- (- (+ (- (- ?x2281 ?x2285) ?x1134) ?x2284) ?x3340) (* (* 2.0 l_1_2_18) l_1_2_21))))
 (let ((?x3800 (- (- ?x3796 (* (* 2.0 l_1_2_19) l_1_2_22)) (* (* 2.0 l_1_2_20) l_1_2_23))))
 (= (- ?x3800 (* l_1_2_9 ?x3576)) 0.0))))))))))
(assert
 (let ((?x2388 (* (/ 1.0 10.0) _a_6_)))
 (let ((?x2385 (* _a_4_ l_1_2_7)))
 (let ((?x2383 (* _a_4_ l_1_2_4)))
 (let ((?x3569 (* _a_4_ l_1_2_11)))
 (let ((?x3568 (- (* (* (* (- 2.0) _a_0_) _a_4_) l_1_2_9) (* (* 9.0 _a_4_) l_1_2_1))))
 (let ((?x2386 (- (- (- (- ?x3568 ?x3569) (* (* 9.0 _a_4_) l_1_2_13)) ?x2383) ?x2385)))
 (let ((?x4315 (- (- (- (+ ?x2386 _a_4_) ?x2388) (* (* 2.0 l_1_2_16) l_1_2_21)) (* (* 2.0 l_1_2_17) l_1_2_22))))
 (= ?x4315 0.0)))))))))
(assert
 (let ((?x4019 (* _a_8_ l_1_2_7)))
 (let ((?x4017 (* _a_8_ l_1_2_4)))
 (let ((?x4016 (* _a_8_ l_1_2_11)))
 (let ((?x4020 (- (- (* (* (* (- 2.0) _a_0_) _a_8_) l_1_2_9) (* (/ 1.0 10.0) _a_4_)) (* (* 9.0 _a_8_) l_1_2_1))))
 (let ((?x2832 (- (- (- (- ?x4020 ?x4016) (* (* 9.0 _a_8_) l_1_2_13)) ?x4017) ?x4019)))
 (let ((?x3896 (- (- ?x2832 (* (* 2.0 l_1_2_16) l_1_2_18)) (* (* 2.0 l_1_2_17) l_1_2_19))))
 (= ?x3896 0.0))))))))
(assert
 (= (- _a_5_ (* (* 2.0 l_1_2_15) l_1_2_25)) 0.0))
(assert
 (let ((?x2193 (* _a_6_ l_1_2_7)))
 (let ((?x3058 (* _a_6_ l_1_2_4)))
 (let ((?x3062 (* _a_6_ l_1_2_11)))
 (let ((?x2366 (- (* (* (* (- 2.0) _a_0_) _a_6_) l_1_2_9) (* (* 9.0 _a_6_) l_1_2_1))))
 (let ((?x2182 (- (- (- (- ?x2366 ?x3062) (* (* 9.0 _a_6_) l_1_2_13)) ?x3058) ?x2193)))
 (let ((?x2186 (- (- (+ ?x2182 _a_6_) (* (* 2.0 l_1_2_16) l_1_2_25)) (* (* 2.0 l_1_2_17) l_1_2_26))))
 (= ?x2186 0.0))))))))
(assert
 (let ((?x672 (* 18.0 l_1_2_5)))
 (let ((?x3509 (* l_1_2_29 l_1_2_29)))
 (let ((?x277 (* l_1_2_28 l_1_2_28)))
 (let ((?x3529 (* l_1_2_27 l_1_2_27)))
 (let ((?x802 (* l_1_2_26 l_1_2_26)))
 (let ((?x4214 (* l_1_2_25 l_1_2_25)))
 (let ((?x3196 (* _a_7_ l_1_2_7)))
 (let ((?x4428 (+ (- (- (* (- _a_7_) l_1_2_11) (* _a_7_ l_1_2_4)) ?x3196) _a_7_)))
 (let ((?x4216 (+ (- ?x4428 (* l_1_2_1 (+ (- _a_0_) (* 9.0 _a_7_)))) l_1_2_12)))
 (let ((?x3524 (- (- (- ?x4216 (* l_1_2_13 (+ (- _a_0_) (* 9.0 _a_7_)))) ?x4214) ?x802)))
 (let ((?x3525 (+ (+ (+ (- (- (- ?x3524 ?x3529) ?x277) ?x3509) ?x672) l_1_2_6) l_1_2_8)))
 (let ((?x279 (- ?x3525 (* l_1_2_9 (+ (* (* 2.0 _a_0_) _a_7_) (* _a_6_ _a_6_))))))
 (= ?x279 0.0))))))))))))))
(assert
 (= (- _a_8_ (* (* 2.0 l_1_2_15) l_1_2_16)) 0.0))
(assert
 (let ((?x672 (* 18.0 l_1_2_5)))
 (let ((?x3936 (* l_1_2_20 l_1_2_20)))
 (let ((?x915 (* l_1_2_19 l_1_2_19)))
 (let ((?x912 (* l_1_2_18 l_1_2_18)))
 (let ((?x4036 (* (/ 1.0 100.0) _a_9_)))
 (let ((?x2538 (* _a_1_ l_1_2_7)))
 (let ((?x4041 (+ (- (- (* (- _a_1_) l_1_2_11) (* _a_1_ l_1_2_4)) ?x2538) ?x4036)))
 (let ((?x3088 (+ (- ?x4041 (* l_1_2_1 (+ (- _a_0_) (* 9.0 _a_1_)))) l_1_2_12)))
 (let ((?x3935 (- (- (- ?x3088 (* l_1_2_13 (+ (- _a_0_) (* 9.0 _a_1_)))) ?x912) ?x915)))
 (let ((?x2967 (- (+ (+ (+ (- ?x3935 ?x3936) ?x672) l_1_2_6) l_1_2_8) (* l_1_2_9 (+ (* (* 2.0 _a_0_) _a_1_) (* _a_8_ _a_8_))))))
 (= ?x2967 0.0))))))))))))
(assert
 (let ((?x3169 (* 2.0 l_1_2_5)))
 (let ((?x2469 (- (* (- l_1_2_1) (- (- _a_1_) _a_7_)) (* l_1_2_13 (- (- _a_1_) _a_7_)))))
 (let ((?x3166 (- (- ?x2469 ?x3169) (* l_1_2_9 (+ (* (* 2.0 _a_1_) _a_7_) (* _a_5_ _a_5_))))))
 (= ?x3166 0.0)))))
(assert
 (let ((?x448 (+ (* (* 2.0 _a_2_) _a_7_) (* (* 2.0 _a_3_) _a_5_))))
 (let ((?x4411 (- (+ (* _a_2_ l_1_2_1) (* _a_2_ l_1_2_13)) (* l_1_2_9 ?x448))))
 (= ?x4411 0.0))))
(assert
 (let ((?x2169 (* _a_3_ l_1_2_13)))
 (let ((?x3452 (* _a_3_ l_1_2_1)))
 (= (+ (+ (* (* (* (- 2.0) _a_3_) _a_7_) l_1_2_9) ?x3452) ?x2169) 0.0))))
(assert
 (let ((?x3086 (+ (* (* 2.0 _a_3_) _a_6_) (* (* 2.0 _a_4_) _a_7_))))
 (let ((?x2935 (* _a_4_ l_1_2_13)))
 (let ((?x2435 (* _a_4_ l_1_2_1)))
 (let ((?x1268 (+ ?x2435 ?x2935)))
 (= (- ?x1268 (* l_1_2_9 ?x3086)) 0.0))))))
(assert
 (let ((?x2083 (* _a_5_ l_1_2_13)))
 (let ((?x2078 (* _a_5_ l_1_2_1)))
 (= (+ (+ (* (* (* (- 2.0) _a_5_) _a_7_) l_1_2_9) ?x2078) ?x2083) 0.0))))
(assert
 (let ((?x2536 (* _a_6_ l_1_2_13)))
 (let ((?x1777 (* _a_6_ l_1_2_1)))
 (= (+ (+ (* (* (* (- 2.0) _a_6_) _a_7_) l_1_2_9) ?x1777) ?x2536) 0.0))))
(assert
 (let ((?x3416 (- (- (+ (* _a_7_ l_1_2_1) (* _a_7_ l_1_2_13)) l_1_2_5) (* (* l_1_2_9 _a_7_) _a_7_))))
 (= ?x3416 0.0)))
(assert
 (let ((?x4340 (+ (* (* 2.0 _a_5_) _a_6_) (* (* 2.0 _a_7_) _a_8_))))
 (let ((?x4331 (* _a_8_ l_1_2_13)))
 (let ((?x3290 (* _a_8_ l_1_2_1)))
 (let ((?x3712 (+ ?x3290 ?x4331)))
 (= (- ?x3712 (* l_1_2_9 ?x4340)) 0.0))))))
(assert
 (let ((?x3169 (* 2.0 l_1_2_5)))
 (let ((?x572 (- (* (- l_1_2_1) (- (- _a_7_) _a_9_)) (* l_1_2_13 (- (- _a_7_) _a_9_)))))
 (let ((?x3724 (- (- ?x572 ?x3169) (* l_1_2_9 (+ (* _a_3_ _a_3_) (* (* 2.0 _a_7_) _a_9_))))))
 (= ?x3724 0.0)))))
(assert
 (let ((?x3169 (* 2.0 l_1_2_5)))
 (let ((?x1183 (- (* (- l_1_2_1) (- (- _a_1_) _a_9_)) (* l_1_2_13 (- (- _a_1_) _a_9_)))))
 (let ((?x4271 (- (- ?x1183 ?x3169) (* l_1_2_9 (+ (* (* 2.0 _a_1_) _a_9_) (* _a_2_ _a_2_))))))
 (= ?x4271 0.0)))))
(assert
 (let ((?x1654 (* _a_2_ l_1_2_13)))
 (let ((?x3771 (* _a_2_ l_1_2_1)))
 (= (+ (+ (* (* (* (- 2.0) _a_2_) _a_9_) l_1_2_9) ?x3771) ?x1654) 0.0))))
(assert
 (let ((?x2169 (* _a_3_ l_1_2_13)))
 (let ((?x3452 (* _a_3_ l_1_2_1)))
 (= (+ (+ (* (* (* (- 2.0) _a_3_) _a_9_) l_1_2_9) ?x3452) ?x2169) 0.0))))
(assert
 (let ((?x2935 (* _a_4_ l_1_2_13)))
 (let ((?x2435 (* _a_4_ l_1_2_1)))
 (= (+ (+ (* (* (* (- 2.0) _a_4_) _a_9_) l_1_2_9) ?x2435) ?x2935) 0.0))))
(assert
 (let ((?x616 (+ (* (* 2.0 _a_2_) _a_3_) (* (* 2.0 _a_5_) _a_9_))))
 (let ((?x2083 (* _a_5_ l_1_2_13)))
 (let ((?x2078 (* _a_5_ l_1_2_1)))
 (let ((?x2222 (+ ?x2078 ?x2083)))
 (= (- ?x2222 (* l_1_2_9 ?x616)) 0.0))))))
(assert
 (let ((?x148 (+ (* (* 2.0 _a_3_) _a_4_) (* (* 2.0 _a_6_) _a_9_))))
 (let ((?x2536 (* _a_6_ l_1_2_13)))
 (let ((?x1777 (* _a_6_ l_1_2_1)))
 (let ((?x1254 (+ ?x1777 ?x2536)))
 (= (- ?x1254 (* l_1_2_9 ?x148)) 0.0))))))
(assert
 (let ((?x514 (+ (* (* 2.0 _a_2_) _a_4_) (* (* 2.0 _a_8_) _a_9_))))
 (let ((?x4331 (* _a_8_ l_1_2_13)))
 (let ((?x3290 (* _a_8_ l_1_2_1)))
 (let ((?x3712 (+ ?x3290 ?x4331)))
 (= (- ?x3712 (* l_1_2_9 ?x514)) 0.0))))))
(assert
 (let ((?x1486 (- (- (+ (* _a_9_ l_1_2_1) (* _a_9_ l_1_2_13)) l_1_2_5) (* (* l_1_2_9 _a_9_) _a_9_))))
 (= ?x1486 0.0)))
(assert
 (let ((?x3329 (- (- (+ (* _a_1_ l_1_2_1) (* _a_1_ l_1_2_13)) l_1_2_5) (* (* l_1_2_9 _a_1_) _a_1_))))
 (= ?x3329 0.0)))
(assert
 (let ((?x1654 (* _a_2_ l_1_2_13)))
 (let ((?x3771 (* _a_2_ l_1_2_1)))
 (= (+ (+ (* (* (* (- 2.0) _a_1_) _a_2_) l_1_2_9) ?x3771) ?x1654) 0.0))))
(assert
 (let ((?x1422 (+ (* (* 2.0 _a_1_) _a_3_) (* (* 2.0 _a_2_) _a_5_))))
 (let ((?x4590 (- (+ (* _a_3_ l_1_2_1) (* _a_3_ l_1_2_13)) (* l_1_2_9 ?x1422))))
 (= ?x4590 0.0))))
(assert
 (let ((?x1209 (+ (* (* 2.0 _a_1_) _a_4_) (* (* 2.0 _a_2_) _a_8_))))
 (let ((?x2935 (* _a_4_ l_1_2_13)))
 (let ((?x2435 (* _a_4_ l_1_2_1)))
 (let ((?x1268 (+ ?x2435 ?x2935)))
 (= (- ?x1268 (* l_1_2_9 ?x1209)) 0.0))))))
(assert
 (let ((?x2083 (* _a_5_ l_1_2_13)))
 (let ((?x2078 (* _a_5_ l_1_2_1)))
 (= (+ (+ (* (* (* (- 2.0) _a_1_) _a_5_) l_1_2_9) ?x2078) ?x2083) 0.0))))
(assert
 (let ((?x1013 (+ (* (* 2.0 _a_1_) _a_6_) (* (* 2.0 _a_5_) _a_8_))))
 (let ((?x2536 (* _a_6_ l_1_2_13)))
 (let ((?x1777 (* _a_6_ l_1_2_1)))
 (let ((?x1254 (+ ?x1777 ?x2536)))
 (= (- ?x1254 (* l_1_2_9 ?x1013)) 0.0))))))
(assert
 (let ((?x4331 (* _a_8_ l_1_2_13)))
 (let ((?x3290 (* _a_8_ l_1_2_1)))
 (= (+ (+ (* (* (* (- 2.0) _a_1_) _a_8_) l_1_2_9) ?x3290) ?x4331) 0.0))))
(assert
 (let ((?x415 (+ (+ (* (* 2.0 _a_2_) _a_6_) (* (* 2.0 _a_3_) _a_8_)) (* (* 2.0 _a_4_) _a_5_))))
 (= (* (- l_1_2_9) ?x415) 0.0)))
(assert
 (>= l_1_2_1 0.0))
(assert
 (>= l_1_2_2 0.0))
(assert
 (>= l_1_2_3 0.0))
(assert
 (>= l_1_2_4 0.0))
(assert
 (>= l_1_2_5 0.0))
(assert
 (>= l_1_2_6 0.0))
(assert
 (>= l_1_2_7 0.0))
(assert
 (>= l_1_2_8 0.0))
(assert
 (>= l_1_2_9 0.0))
(assert
 (>= l_1_2_10 0.0))
(assert
 (>= l_1_2_11 0.0))
(assert
 (>= l_1_2_12 0.0))
(assert
 (>= l_1_2_13 0.0))
(assert
 (>= l_1_2_14 0.0))
(assert
 (>= l_1_2_15 0.0))
(assert
 (>= l_1_2_17 0.0))
(assert
 (>= l_1_2_20 0.0))
(assert
 (>= l_1_2_24 0.0))
(assert
 (>= l_1_2_29 0.0))
(check-sat)
(get-model)